
******************************************************************************
This program contains Ipopt, a library for large-scale nonlinear optimization.
 Ipopt is released as open source code under the Eclipse Public License (EPL).
         For more information visit http://projects.coin-or.org/Ipopt
******************************************************************************

This is Ipopt version 3.12.6, running with linear solver ma57.

Number of nonzeros in equality constraint Jacobian...:        0
Number of nonzeros in inequality constraint Jacobian.:     5010
Number of nonzeros in Lagrangian Hessian.............:        6

Total number of variables............................:        5
                     variables with only lower bounds:        0
                variables with lower and upper bounds:        0
                     variables with only upper bounds:        0
Total number of equality constraints.................:        0
Total number of inequality constraints...............:     1002
        inequality constraints with only lower bounds:     1002
   inequality constraints with lower and upper bounds:        0
        inequality constraints with only upper bounds:        0

iter    objective    inf_pr   inf_du lg(mu)  ||d||  lg(rg) alpha_du alpha_pr  ls
   0  0.0000000e+00 2.00e+00 9.98e-01  -1.0 0.00e+00    -  0.00e+00 0.00e+00   0
   1  8.0842605e-03 1.99e+00 1.88e+00  -1.0 8.01e-01  -4.0 2.24e-02 1.24e-02h  1
   2  8.3791273e-03 1.98e+00 2.01e+02  -1.0 1.26e+00   1.8 2.13e-02 3.48e-04f  1
   3  1.5184336e-02 1.97e+00 1.08e+03  -1.0 1.31e+00   2.3 1.37e-02 6.88e-03f  1
   4  9.8848038e-01 6.97e-02 4.58e+05  -1.0 2.24e+00   2.7 3.97e-01 1.00e+00f  1
   5  9.8860474e-01 6.03e-02 1.28e+07  -1.0 1.49e+00   5.8 6.87e-01 4.45e-03h  1
   6  9.9577300e-01 0.00e+00 2.67e+07  -1.0 1.48e+00   6.3 6.88e-01 2.50e-01h  1
   7  9.9683122e-01 0.00e+00 5.04e+08  -1.0 1.32e+00   7.6 1.00e+00 7.35e-02h  1
Reallocating memory for MA57: lfact (1630280)
   8  1.0081938e+00 0.00e+00 7.36e+08  -1.0 1.27e+00   8.0 1.00e+00 1.00e+00h  1
   9  9.7465696e-01 0.00e+00 7.39e+10  -1.0 3.12e-01   9.3 1.55e-02 1.00e+00h  1
iter    objective    inf_pr   inf_du lg(mu)  ||d||  lg(rg) alpha_du alpha_pr  ls
  10  9.7251795e-01 0.00e+00 1.26e+10  -1.0 4.34e-02   9.8 9.24e-04 1.00e+00f  1
  11  9.7251686e-01 0.00e+00 2.44e+06  -1.0 3.18e-04   9.3 5.17e-02 1.00e+00f  1
  12  9.7251686e-01 0.00e+00 1.29e+01  -1.0 1.97e-08   8.8 1.00e+00 1.00e+00h  1
  13  9.7251686e-01 0.00e+00 4.18e+00  -1.0 1.93e-08   8.3 1.00e+00 1.00e+00f  1
  14  9.7251688e-01 0.00e+00 4.18e+00  -1.0 5.78e-08   7.9 1.00e+00 1.00e+00f  1
  15  9.7251691e-01 0.00e+00 4.18e+00  -1.0 1.73e-07   7.4 1.00e+00 1.00e+00f  1
  16  9.7251700e-01 0.00e+00 4.17e+00  -1.0 5.18e-07   6.9 1.00e+00 1.00e+00f  1
  17  9.7251728e-01 0.00e+00 4.14e+00  -1.0 1.54e-06   6.4 1.00e+00 1.00e+00f  1
  18  9.7251811e-01 0.00e+00 4.05e+00  -1.0 4.54e-06   6.0 1.00e+00 1.00e+00f  1
  19  9.7252048e-01 0.00e+00 3.82e+00  -1.0 1.28e-05   5.5 1.00e+00 1.00e+00f  1
iter    objective    inf_pr   inf_du lg(mu)  ||d||  lg(rg) alpha_du alpha_pr  ls
  20  9.7252674e-01 0.00e+00 3.30e+00  -1.0 3.33e-05   5.0 1.00e+00 1.00e+00f  1
  21  9.7254158e-01 0.00e+00 2.48e+00  -1.0 7.51e-05   4.5 1.00e+00 1.00e+00f  1
  22  9.7257438e-01 0.00e+00 1.67e+00  -1.0 1.52e-04   4.0 1.00e+00 1.00e+00f  1
  23  9.7264788e-01 0.00e+00 1.09e+00  -1.0 2.99e-04   3.6 1.00e+00 1.00e+00f  1
  24  9.7282172e-01 0.00e+00 7.36e-01  -1.0 6.03e-04   3.1 1.00e+00 1.00e+00f  1
  25  9.7290809e-01 0.00e+00 1.07e-01  -1.7 2.63e-04   2.6 1.00e+00 1.00e+00f  1
  26  9.7294415e-01 0.00e+00 1.99e-02  -2.5 1.47e-04   2.1 1.00e+00 1.00e+00h  1
  27  9.7292941e-01 0.00e+00 1.45e-03  -3.8 3.19e-05   1.7 1.00e+00 1.00e+00h  1
  28  9.7286397e-01 0.00e+00 1.01e-03  -5.7 6.71e-05   1.2 1.00e+00 1.00e+00h  1
  29  9.7266706e-01 0.00e+00 1.00e-03  -5.7 1.99e-04   0.7 1.00e+00 1.00e+00f  1
iter    objective    inf_pr   inf_du lg(mu)  ||d||  lg(rg) alpha_du alpha_pr  ls
  30  9.7207654e-01 0.00e+00 1.01e-03  -5.7 5.99e-04   0.2 1.00e+00 1.00e+00f  1
  31  9.7122217e-01 0.00e+00 1.29e-03  -5.7 1.82e-03  -0.3 1.00e+00 4.84e-01f  1
  32  9.6696571e-01 0.00e+00 1.64e-03  -5.7 8.80e-03  -0.7 1.00e+00 1.00e+00f  1
  33  9.5396056e-01 0.00e+00 1.60e-03  -5.7 2.58e-02  -1.2 1.00e+00 1.00e+00h  1
  34  9.1495514e-01 0.00e+00 1.62e-03  -5.7 7.80e-02  -1.7 1.00e+00 1.00e+00h  1
  35  9.0023119e-01 0.00e+00 1.63e-03  -5.7 2.94e-02  -1.3 1.00e+00 1.00e+00h  1
  36  8.5604994e-01 0.00e+00 1.63e-03  -5.7 8.84e-02  -1.7 1.00e+00 1.00e+00h  1
  37  8.3936566e-01 0.00e+00 1.64e-03  -5.7 3.34e-02  -1.3 1.00e+00 1.00e+00h  1
  38  7.8930438e-01 0.00e+00 1.64e-03  -5.7 1.00e-01  -1.8 1.00e+00 1.00e+00h  1
  39  7.7039552e-01 0.00e+00 1.65e-03  -5.7 3.78e-02  -1.4 1.00e+00 1.00e+00h  1
iter    objective    inf_pr   inf_du lg(mu)  ||d||  lg(rg) alpha_du alpha_pr  ls
  40  7.6331316e-01 0.00e+00 1.65e-03  -5.7 1.42e-02  -0.9 1.00e+00 1.00e+00h  1
  41  7.4206096e-01 0.00e+00 1.65e-03  -5.7 4.25e-02  -1.4 1.00e+00 1.00e+00h  1
  42  7.3406899e-01 0.00e+00 1.66e-03  -5.7 1.60e-02  -1.0 1.00e+00 1.00e+00h  1
  43  7.1009039e-01 0.00e+00 1.66e-03  -5.7 4.80e-02  -1.5 1.00e+00 1.00e+00h  1
  44  7.0107105e-01 0.00e+00 1.66e-03  -5.7 1.80e-02  -1.0 1.00e+00 1.00e+00h  1
  45  6.7401023e-01 0.00e+00 1.66e-03  -5.7 5.41e-02  -1.5 1.00e+00 1.00e+00h  1
  46  6.6382913e-01 0.00e+00 1.67e-03  -5.7 2.04e-02  -1.1 1.00e+00 1.00e+00h  1
  47  6.3328317e-01 0.00e+00 1.67e-03  -5.7 6.11e-02  -1.6 1.00e+00 1.00e+00h  1
  48  6.2178810e-01 0.00e+00 1.67e-03  -5.7 2.30e-02  -1.1 1.00e+00 1.00e+00h  1
  49  5.8730087e-01 0.00e+00 1.67e-03  -5.7 6.90e-02  -1.6 1.00e+00 1.00e+00h  1
iter    objective    inf_pr   inf_du lg(mu)  ||d||  lg(rg) alpha_du alpha_pr  ls
  50  5.7431955e-01 0.00e+00 1.68e-03  -5.7 2.60e-02  -1.2 1.00e+00 1.00e+00h  1
  51  5.3537512e-01 0.00e+00 1.68e-03  -5.7 7.79e-02  -1.7 1.00e+00 1.00e+00h  1
  52  5.2071274e-01 0.00e+00 1.69e-03  -5.7 2.93e-02  -1.2 1.00e+00 1.00e+00h  1
  53  4.7672846e-01 0.00e+00 1.69e-03  -5.7 8.80e-02  -1.7 1.00e+00 1.00e+00h  1
  54  4.6016523e-01 0.00e+00 1.69e-03  -5.7 3.31e-02  -1.3 1.00e+00 1.00e+00h  1
  55  4.1048544e-01 0.00e+00 1.69e-03  -5.7 9.94e-02  -1.8 1.00e+00 1.00e+00h  1
  56  3.9177458e-01 0.00e+00 1.70e-03  -5.7 3.74e-02  -1.3 1.00e+00 1.00e+00h  1
  57  3.3566710e-01 0.00e+00 1.70e-03  -5.7 1.12e-01  -1.8 1.00e+00 1.00e+00h  1
  58  3.1453115e-01 0.00e+00 1.71e-03  -5.7 4.23e-02  -1.4 1.00e+00 1.00e+00h  1
  59  2.5087109e-01 0.00e+00 1.16e-02  -5.7 6.90e-01  -1.9 1.00e+00 1.00e+00h  1
iter    objective    inf_pr   inf_du lg(mu)  ||d||  lg(rg) alpha_du alpha_pr  ls
  60  8.9964537e-02 2.33e-01 4.81e-02  -5.7 1.87e+00  -2.3 9.38e-01 7.30e-01h  1
  61  4.8228599e-02 0.00e+00 2.04e-01  -5.7 1.71e+00  -1.9 6.54e-02 7.97e-01h  1
  62  2.9140947e-02 0.00e+00 1.79e-01  -5.7 1.40e+01    -  8.74e-02 2.38e-02h  1
  63  2.3746285e-02 1.28e-03 1.79e-01  -5.7 1.82e+00    -  2.47e-04 3.28e-02h  1
  64  2.1725999e-02 3.67e-03 1.76e-01  -5.7 5.97e+00    -  2.36e-04 2.97e-02h  1
  65  1.9781904e-02 6.41e-03 1.76e-01  -5.7 4.23e+00    -  3.18e-04 1.77e-02f  1
  66  1.7473886e-02 9.62e-03 1.70e-01  -5.7 6.47e+00    -  4.69e-04 4.80e-02f  1
  67  1.3581287e-02 1.55e-02 1.74e-01  -5.7 6.45e+00    -  5.25e-04 2.74e-02f  1
  68  1.5102196e-02 1.20e-02 1.67e-01  -5.7 2.40e+00  -2.4 2.60e-05 1.18e-02h  1
  69  1.2677716e-02 1.83e-02 1.73e-01  -5.7 5.36e+01    -  1.54e-05 4.26e-03f  1
iter    objective    inf_pr   inf_du lg(mu)  ||d||  lg(rg) alpha_du alpha_pr  ls
  70  1.1678612e-02 2.16e-02 1.74e-01  -5.7 5.51e+00  -2.9 9.20e-04 1.10e-02f  1
  71  9.8233283e-03 2.89e-02 1.67e-01  -5.7 4.86e-01  -2.5 3.97e-03 6.25e-02f  1
  72  1.2832705e-02 2.88e-02 1.48e-01  -5.7 2.80e+00  -2.0 2.03e-04 2.17e-02h  1
  73  1.0942799e-02 2.94e-02 1.48e-01  -5.7 2.02e+00  -2.5 9.95e-05 3.51e-02f  1
  74  1.0421370e-02 3.23e-02 1.43e-01  -5.7 6.10e-01  -2.1 9.30e-03 3.79e-02f  1
  75  8.3055675e-03 3.04e-02 8.48e-02  -5.7 4.17e-01  -2.6 4.43e-01 5.33e-02h  1
  76  7.8200322e-03 3.49e-02 4.08e-01  -5.7 1.71e+00    -  9.55e-03 9.84e-02h  1
  77  6.4208560e-03 5.04e-02 3.13e-01  -5.7 1.18e+00    -  1.56e-01 2.31e-01h  1
  78  5.3048484e-03 2.23e-01 3.29e-01  -5.7 1.23e+00    -  1.39e-02 6.13e-01h  1
  79  3.9812511e-03 1.50e-01 3.45e-01  -5.7 6.60e-01    -  7.74e-04 2.96e-01h  1
iter    objective    inf_pr   inf_du lg(mu)  ||d||  lg(rg) alpha_du alpha_pr  ls
  80  3.8801097e-03 1.47e-02 3.97e-01  -5.7 5.67e-01    -  1.07e-02 8.73e-01h  1
  81  2.9317152e-03 1.75e-02 3.01e-01  -5.7 7.36e-01    -  8.15e-04 2.37e-01f  1
  82  2.6396418e-03 1.91e-02 1.64e+01  -5.7 1.43e+00    -  2.90e-05 9.09e-02h  1
  83  2.6646806e-03 1.55e-02 1.15e+01  -5.7 3.32e-01    -  1.95e-03 2.95e-01h  1
  84  3.7417654e-03 1.72e-03 1.09e+00  -5.7 1.89e-02    -  4.35e-03 8.87e-01h  1
  85  2.6223823e-03 2.45e-03 1.84e+00  -5.7 2.54e-01    -  1.18e-03 2.65e-01f  1
  86  2.7372771e-03 2.85e-03 2.19e+00  -5.7 4.86e-01    -  2.32e-04 1.17e-01f  2
  87  2.6267377e-03 9.02e-05 2.21e-02  -5.7 2.05e-02    -  8.31e-01 1.00e+00h  1
  88  2.7398514e-03 2.78e-05 1.49e-02  -5.7 1.78e-02    -  2.76e-01 1.00e+00h  1
  89  2.7267679e-03 0.00e+00 1.04e-08  -5.7 1.60e-03    -  1.00e+00 1.00e+00h  1
iter    objective    inf_pr   inf_du lg(mu)  ||d||  lg(rg) alpha_du alpha_pr  ls
  90  2.4225723e-03 0.00e+00 3.95e-02  -8.6 3.01e-02    -  1.00e+00 2.68e-01h  1
  91  2.1298905e-03 1.33e-05 5.07e-02  -8.6 1.90e-02    -  1.00e+00 5.68e-01h  1
  92  2.0723059e-03 1.18e-05 8.40e-02  -8.6 1.06e-02    -  2.46e-01 5.64e-01h  1
  93  2.0699690e-03 8.75e-06 6.02e-02  -8.6 1.58e-03    -  5.16e-01 2.64e-01h  1
  94  2.0698422e-03 3.08e-06 8.60e-02  -8.6 6.87e-05    -  1.00e+00 6.49e-01h  1
  95  2.0697422e-03 0.00e+00 3.90e-10  -8.6 1.13e-05    -  1.00e+00 1.00e+00f  1

Number of Iterations....: 95

                                   (scaled)                 (unscaled)
Objective...............:   2.0697421784438667e-03    2.0697421784438667e-03
Dual infeasibility......:   3.9041545690787771e-10    3.9041545690787771e-10
Constraint violation....:   0.0000000000000000e+00    0.0000000000000000e+00
Complementarity.........:   5.6433308968893634e-09    5.6433308968893634e-09
Overall NLP error.......:   5.6433308968893634e-09    5.6433308968893634e-09


Number of objective function evaluations             = 99
Number of objective gradient evaluations             = 96
Number of equality constraint evaluations            = 0
Number of inequality constraint evaluations          = 99
Number of equality constraint Jacobian evaluations   = 0
Number of inequality constraint Jacobian evaluations = 96
Number of Lagrangian Hessian evaluations             = 95
Total CPU secs in IPOPT (w/o function evaluations)   =      0.443
Total CPU secs in NLP function evaluations           =      0.047

EXIT: Optimal Solution Found.

************************ CUTEst statistics ************************


 Package used            :  IPOPT
 Problem                 :  OET6      
 # variables             =               5
 # constraints           =            1002
 # objective functions   =        0.1960000E+03
 # objective gradients   =        0.9700000E+02
 # objective Hessians    =        0.9600000E+02
 # Hessian-vector prdct  =        0.0000000E+00
 # constraints functions =        0.1970000E+03
 # constraints gradients =        0.9800000E+02
 # constraints Hessians  =        0.9600000E+02
 Exit code               =               0
 Final f                 =   0.2069742E-02
 Set up time             =            0.05 seconds
 Solve time              =            0.68 seconds


******************************************************************

System Time =       0.4670000076 s.
